1 -1 0
1 -2 0
1 -3 0
1 -4 0
1 -5 0
1 -6 0
1 -7 0
1 -8 0
1 -9 0
1 -10 0
1 -11 0
1 -12 0
1 -13 0
1 -14 0
1 -15 0
1 -16 0
1 -17 0
1 -18 0
1 -19 0
1 -20 0
1 -21 0
1 -22 0
1 -23 0
1 -24 0
1 -25 0
1 -26 0
1 -27 0
1 -28 0
1 -29 0
1 -30 0
1 -31 0
1 -32 0
1 -33 0
1 -34 0
1 -35 0
1 -36 0
1 -37 0
1 -38 0
1 -39 0
1 -40 0
1 -41 0
1 -42 0
1 -43 0
1 -44 0
1 -45 0
1 -46 0
1 -47 0
1 -48 0
1 -49 0
1 -50 0
1 -51 0
1 -52 0
1 -53 0
1 -54 0
1 -55 0
1 -56 0
1 -57 0
1 -58 0
1 -59 0
1 -60 0
1 -61 0
1 -62 0
1 -63 0
1 -64 0
1 -65 0
1 -66 0
1 -67 0
1 -68 0
1 -69 0
1 -70 0
1 -71 0
1 -72 0
1 -73 0
1 -74 0
1 -75 0
1 -76 0
1 -77 0
1 -78 0
1 -79 0
1 -80 0
1 -81 0
1 -82 0
1 -83 0
1 -84 0
1 -85 0
1 -86 0
1 -87 0
1 -88 0
1 -89 0
1 -90 0
1 -91 0
1 -92 0
1 -93 0
1 -94 0
1 -95 0
1 -96 0
1 -97 0
1 -98 0
1 -99 0
1 -100 0
1 -101 0
1 -102 0
1 -103 0
1 -104 0
1 -105 0
1 -106 0
1 -107 0
1 -108 0
1 -109 0
1 -110 0
1 -111 0
1 -112 0
1 -113 0
1 -114 0
1 -115 0
1 -116 0
1 -117 0
h 2 3 7 10 37 38 39 40 41 42 43 44 45 0
h 1 3 8 11 46 47 48 49 50 51 52 53 54 0
h 1 2 9 12 55 56 57 58 59 60 61 62 63 0
h 1 5 6 10 64 65 66 67 68 69 70 71 72 0
h 2 4 6 11 73 74 75 76 77 78 79 80 81 0
h 3 4 5 12 82 83 84 85 86 87 88 89 90 0
h 4 8 9 10 91 92 93 94 95 96 97 98 99 0
h 5 7 9 11 100 101 102 103 104 105 106 107 108 0
h 6 7 8 12 109 110 111 112 113 114 115 116 117 0
h 14 15 19 22 37 46 55 64 73 82 91 100 109 0
h 13 15 20 23 38 47 56 65 74 83 92 101 110 0
h 13 14 21 24 39 48 57 66 75 84 93 102 111 0
h 13 17 18 22 40 49 58 67 76 85 94 103 112 0
h 14 16 18 23 41 50 59 68 77 86 95 104 113 0
h 15 16 17 24 42 51 60 69 78 87 96 105 114 0
h 16 20 21 22 43 52 61 70 79 88 97 106 115 0
h 17 19 21 23 44 53 62 71 80 89 98 107 116 0
h 18 19 20 24 45 54 63 72 81 90 99 108 117 0
h 26 27 31 34 37 51 59 70 75 83 94 108 116 0
h 25 27 32 35 42 47 58 66 80 82 99 104 115 0
h 25 26 33 36 41 49 57 65 73 90 98 106 114 0
h 25 29 30 34 43 48 56 67 81 89 91 105 113 0
h 26 28 30 35 39 53 55 72 77 88 96 101 112 0
h 27 28 29 36 38 46 63 71 79 87 95 103 111 0
h 28 32 33 34 40 54 62 64 78 86 97 102 110 0
h 29 31 33 35 45 50 61 69 74 85 93 107 109 0
h 30 31 32 36 44 52 60 68 76 84 92 100 117 0
